NAME : XML100_1263_20
DIMENSION : 101
NB_CLUSTERS : 5
CLUSTERING_ALG : KMedoids
CLUSTERING_PARAMS : k(4)
CLUSTERS
1 0
2 5 9 12 24 25 28 33 40 45 48 50 51 56 60 67 70 72 77 86 92 100
3 1 4 15 23 26 31 32 34 36 38 42 46 49 52 54 55 58 59 62 65 69 76 79 82 83 84 87 89
4 3 6 8 10 13 16 20 21 22 27 35 39 41 43 57 64 68 71 73 75 78 90 94 96 97 98
5 2 7 11 14 17 18 19 29 30 37 44 47 53 61 63 66 74 80 81 85 88 91 93 95 99
EOF